Optimize a model with 9 rows, 25 columns and 45 nonzeros
Variable types: 20 continuous, 5 integer (5 binary)
Coefficient statistics:
  Matrix range     [1e+00, 1e+01]
  Objective range  [1e+03, 2e+04]
  Bounds range     [1e+00, 1e+00]
  RHS range        [1e+00, 1e+00]
Presolve time: 0.13s
Presolved: 9 rows, 25 columns, 45 nonzeros
Variable types: 20 continuous, 5 integer (5 binary)

Root relaxation: objective 2.065000e+04, 7 iterations, 0.03 seconds

    Nodes    |    Current Node    |     Objective Bounds      |     Work
 Expl Unexpl |  Obj  Depth IntInf | Incumbent    BestBd   Gap | It/Node Time

     0     0 20650.0000    0    2          - 20650.0000      -     -    1s
H    0     0                    34900.000000 20650.0000  40.8%     -    1s
H    0     0                    33400.000000 20650.0000  38.2%     -    1s
H    0     0                    21900.000000 20650.0000  5.71%     -    1s
     0     0          -    0      21900.0000 21900.0000  0.00%     -    1s

Cutting planes:
  Gomory: 1
  Implied bound: 4

Explored 0 nodes (13 simplex iterations) in 1.06 seconds
Thread count was 8 (of 8 available processors)

Solution count 3: 21900 33400 34900 
Pool objective bound 21900

Optimal solution found (tolerance 1.00e-04)
Best objective 2.190000000000e+04, best bound 2.190000000000e+04, gap 0.0000%
